NAME : portcgen-21-26
COMMENT : portcgen N=21, seed=26
TYPE : TSP
DIMENSION : 21
EDGE_WEIGHT_TYPE : EUC_2D
NODE_COORD_SECTION
1 -181098 -59006
2 157070 -238094
3 -8906 -86939
4 -231439 360619
5 -185929 89998
6 183084 7099
7 -96169 22542
8 -360317 -108369
9 67904 237997
10 -50915 -368854
11 -296082 332437
12 -159254 -69009
13 -120101 237026
14 -169148 -287599
15 290683 -574940
16 43470 -217921
17 301221 204665
18 -186494 -333275
19 143720 39299
20 303979 -92457
21 -481462 231657
